       N       E                     dE             d eps       ncg     rms          rms(c)
DAV:   1     0.157432086413E+04    0.15743E+04   -0.64269E+04 80120   0.145E+03
DAV:   2    -0.660567021845E+02   -0.16404E+04   -0.15801E+04 80008   0.382E+02
DAV:   3    -0.216007612472E+03   -0.14995E+03   -0.12355E+03 82681   0.146E+02
DAV:   4    -0.237334184544E+03   -0.21327E+02   -0.19309E+02143051   0.416E+01
DAV:   5    -0.239059567990E+03   -0.17254E+01   -0.15686E+01128931   0.127E+01    0.563E+01
DAV:   6    -0.225483250799E+03    0.13576E+02   -0.43578E+02110866   0.118E+02    0.705E+01
DAV:   7    -0.288402665956E+03   -0.62919E+02   -0.35108E+02153888   0.195E+02    0.124E+02
DAV:   8    -0.213782691840E+03    0.74620E+02   -0.15834E+02143334   0.806E+01    0.523E+01
DAV:   9    -0.208690911902E+03    0.50918E+01   -0.62684E+01143811   0.627E+01    0.315E+01
DAV:  10    -0.212717577329E+03   -0.40267E+01   -0.33843E+01149356   0.464E+01    0.373E+01
DAV:  11    -0.207760984296E+03    0.49566E+01   -0.11518E+01143786   0.298E+01    0.161E+01
DAV:  12    -0.208394880328E+03   -0.63390E+00   -0.25459E+00139270   0.107E+01    0.159E+01
DAV:  13    -0.208572997760E+03   -0.17812E+00   -0.12524E+00137889   0.954E+00    0.143E+01
DAV:  14    -0.208894886426E+03   -0.32189E+00   -0.10266E+00152685   0.788E+00    0.145E+01
DAV:  15    -0.209729261858E+03   -0.83438E+00   -0.11759E+00137536   0.660E+00    0.113E+01
DAV:  16    -0.210714016143E+03   -0.98475E+00   -0.22069E+00151680   0.121E+01    0.122E+01
DAV:  17    -0.210937500928E+03   -0.22348E+00   -0.19721E+00156021   0.120E+01    0.857E+00
DAV:  18    -0.211523041440E+03   -0.58554E+00   -0.24623E+00146664   0.114E+01    0.535E+00
DAV:  19    -0.211670383566E+03   -0.14734E+00   -0.16604E+00138734   0.964E+00    0.713E+00
DAV:  20    -0.211553927596E+03    0.11646E+00   -0.10061E+00146386   0.932E+00    0.473E+00
DAV:  21    -0.211649174667E+03   -0.95247E-01   -0.26385E-01145239   0.391E+00    0.237E+00
DAV:  22    -0.211667953272E+03   -0.18779E-01   -0.10329E-01141184   0.231E+00    0.175E+00
DAV:  23    -0.211669009213E+03   -0.10559E-02   -0.89739E-02154425   0.267E+00    0.131E+00
DAV:  24    -0.211668124139E+03    0.88507E-03   -0.31783E-02151832   0.148E+00    0.533E-01
DAV:  25    -0.211669825225E+03   -0.17011E-02   -0.12655E-02128740   0.557E-01    0.286E-01
DAV:  26    -0.211670260846E+03   -0.43562E-03   -0.61374E-03127970   0.397E-01    0.176E-01
DAV:  27    -0.211670580203E+03   -0.31936E-03   -0.30143E-03 95770   0.232E-01    0.883E-02
DAV:  28    -0.211670762115E+03   -0.18191E-03   -0.19728E-03 53562   0.880E-02    0.607E-02
DAV:  29    -0.211670918130E+03   -0.15601E-03   -0.15702E-03 46868   0.536E-02    0.492E-02
DAV:  30    -0.211671056841E+03   -0.13871E-03   -0.13417E-03 45172   0.256E-02    0.342E-02
DAV:  31    -0.211671175426E+03   -0.11859E-03   -0.11691E-03 44327   0.190E-02    0.245E-02
DAV:  32    -0.211671280621E+03   -0.10520E-03   -0.10377E-03 43877   0.148E-02    0.126E-02
DAV:  33    -0.211671375892E+03   -0.95271E-04   -0.94853E-04 43614   0.128E-02
   1 F= -.21167138E+03 E0= -.21160920E+03  d E =-.211671E+03  mag=    59.0528
