       N       E                     dE             d eps       ncg     rms          rms(c)
DAV:   1     0.157793599011E+04    0.15779E+04   -0.64348E+04 80072   0.145E+03
DAV:   2    -0.653604275709E+02   -0.16433E+04   -0.15827E+04 80008   0.383E+02
DAV:   3    -0.215964654548E+03   -0.15060E+03   -0.12408E+03 82807   0.147E+02
DAV:   4    -0.237099061047E+03   -0.21134E+02   -0.19132E+02142822   0.416E+01
DAV:   5    -0.238810073279E+03   -0.17110E+01   -0.15426E+01128911   0.125E+01    0.567E+01
DAV:   6    -0.228359935070E+03    0.10450E+02   -0.43085E+02112677   0.119E+02    0.751E+01
DAV:   7    -0.281044183989E+03   -0.52684E+02   -0.34274E+02156214   0.187E+02    0.118E+02
DAV:   8    -0.214547449223E+03    0.66497E+02   -0.13665E+02144920   0.788E+01    0.533E+01
DAV:   9    -0.207555332204E+03    0.69921E+01   -0.70280E+01149196   0.604E+01    0.295E+01
DAV:  10    -0.210673739010E+03   -0.31184E+01   -0.26186E+01146259   0.418E+01    0.316E+01
DAV:  11    -0.207915010771E+03    0.27587E+01   -0.82141E+00135504   0.248E+01    0.177E+01
DAV:  12    -0.208458604543E+03   -0.54359E+00   -0.19586E+00137480   0.979E+00    0.165E+01
DAV:  13    -0.208785222642E+03   -0.32662E+00   -0.62163E-01133763   0.702E+00    0.152E+01
DAV:  14    -0.210162143022E+03   -0.13769E+01   -0.18425E+00149671   0.106E+01    0.147E+01
DAV:  15    -0.210691881052E+03   -0.52974E+00   -0.34061E+00155039   0.153E+01    0.782E+00
DAV:  16    -0.211702906391E+03   -0.10110E+01   -0.33003E+00156838   0.158E+01    0.113E+01
DAV:  17    -0.211242777491E+03    0.46013E+00   -0.25585E+00156514   0.146E+01    0.472E+00
DAV:  18    -0.211423974033E+03   -0.18120E+00   -0.83579E-01147115   0.692E+00    0.476E+00
DAV:  19    -0.211411758136E+03    0.12216E-01   -0.54541E-01152489   0.647E+00    0.335E+00
DAV:  20    -0.211435836807E+03   -0.24079E-01   -0.26243E-01143036   0.343E+00    0.228E+00
DAV:  21    -0.211447794515E+03   -0.11958E-01   -0.18065E-01149356   0.359E+00    0.228E+00
DAV:  22    -0.211430738786E+03    0.17056E-01   -0.10061E-01153320   0.258E+00    0.122E+00
DAV:  23    -0.211431864821E+03   -0.11260E-02   -0.25762E-02125199   0.102E+00    0.706E-01
DAV:  24    -0.211431767827E+03    0.96994E-04   -0.10657E-02136991   0.463E-01    0.404E-01
DAV:  25    -0.211431723646E+03    0.44181E-04   -0.49786E-03122790   0.260E-01    0.251E-01
DAV:  26    -0.211432179737E+03   -0.45609E-03   -0.30379E-03 86126   0.177E-01    0.150E-01
DAV:  27    -0.211432428549E+03   -0.24881E-03   -0.23459E-03 50306   0.947E-02    0.701E-02
DAV:  28    -0.211432612841E+03   -0.18429E-03   -0.19608E-03 49892   0.697E-02    0.350E-02
DAV:  29    -0.211432774048E+03   -0.16121E-03   -0.16177E-03 45454   0.498E-02    0.241E-02
DAV:  30    -0.211432906392E+03   -0.13234E-03   -0.13327E-03 44165   0.280E-02    0.189E-02
DAV:  31    -0.211433021998E+03   -0.11561E-03   -0.11497E-03 43737   0.243E-02    0.127E-02
DAV:  32    -0.211433119539E+03   -0.97541E-04   -0.97765E-04 43354   0.173E-02
   1 F= -.21143312E+03 E0= -.21136388E+03  d E =-.138487E+00  mag=    58.0427
