       N       E                     dE             d eps       ncg     rms          rms(c)
DAV:   1     0.157611246415E+04    0.15761E+04   -0.64296E+04 80104   0.145E+03
DAV:   2    -0.655288762304E+02   -0.16416E+04   -0.15811E+04 80008   0.382E+02
DAV:   3    -0.215908520565E+03   -0.15038E+03   -0.12383E+03 82635   0.147E+02
DAV:   4    -0.237277248708E+03   -0.21369E+02   -0.19386E+02143149   0.416E+01
DAV:   5    -0.238977988353E+03   -0.17007E+01   -0.15438E+01128888   0.126E+01    0.563E+01
DAV:   6    -0.223016220470E+03    0.15962E+02   -0.42679E+02109887   0.117E+02    0.670E+01
DAV:   7    -0.286945460925E+03   -0.63929E+02   -0.34954E+02154682   0.194E+02    0.121E+02
DAV:   8    -0.211878198269E+03    0.75067E+02   -0.14190E+02144585   0.835E+01    0.464E+01
DAV:   9    -0.210266994480E+03    0.16112E+01   -0.64246E+01146583   0.610E+01    0.338E+01
DAV:  10    -0.210984084144E+03   -0.71709E+00   -0.30725E+01152737   0.459E+01    0.303E+01
DAV:  11    -0.208500212238E+03    0.24839E+01   -0.11149E+01146697   0.289E+01    0.169E+01
DAV:  12    -0.209199646905E+03   -0.69943E+00   -0.32704E+00141888   0.146E+01    0.153E+01
DAV:  13    -0.209223923032E+03   -0.24276E-01   -0.15918E+00147360   0.119E+01    0.124E+01
DAV:  14    -0.210299307558E+03   -0.10754E+01   -0.20984E+00151994   0.115E+01    0.131E+01
DAV:  15    -0.210568556535E+03   -0.26925E+00   -0.28278E+00155680   0.146E+01    0.749E+00
DAV:  16    -0.211338707266E+03   -0.77015E+00   -0.29046E+00154870   0.143E+01    0.101E+01
DAV:  17    -0.211067611207E+03    0.27110E+00   -0.23337E+00156892   0.142E+01    0.453E+00
DAV:  18    -0.211187774820E+03   -0.12016E+00   -0.60416E-01141752   0.539E+00    0.245E+00
DAV:  19    -0.211227806430E+03   -0.40032E-01   -0.35191E-01145550   0.486E+00    0.325E+00
DAV:  20    -0.211185490148E+03    0.42316E-01   -0.23815E-01153545   0.460E+00    0.140E+00
DAV:  21    -0.211188308219E+03   -0.28181E-02   -0.30738E-02129512   0.988E-01    0.769E-01
DAV:  22    -0.211189377558E+03   -0.10693E-02   -0.11703E-02119050   0.512E-01    0.420E-01
DAV:  23    -0.211189993236E+03   -0.61568E-03   -0.62210E-03135774   0.374E-01    0.234E-01
DAV:  24    -0.211190571575E+03   -0.57834E-03   -0.49738E-03139510   0.375E-01    0.240E-01
DAV:  25    -0.211190668663E+03   -0.97088E-04   -0.35568E-03120635   0.332E-01    0.117E-01
DAV:  26    -0.211190873508E+03   -0.20485E-03   -0.20740E-03 52029   0.119E-01    0.670E-02
DAV:  27    -0.211191001962E+03   -0.12845E-03   -0.14756E-03 45721   0.774E-02    0.433E-02
DAV:  28    -0.211191120529E+03   -0.11857E-03   -0.12122E-03 45137   0.501E-02    0.273E-02
DAV:  29    -0.211191221054E+03   -0.10053E-03   -0.10143E-03 44387   0.238E-02    0.186E-02
DAV:  30    -0.211191308228E+03   -0.87174E-04   -0.87375E-04 43932   0.229E-02
   1 F= -.21119131E+03 E0= -.21112411E+03  d E =-.211191E+03  mag=    58.5806
