Fe bcc vacancy supercell                
   1.00000000000000     
    -4.2519172821000000    4.2519172821000000    4.2519172821000000
     4.2519177500999996   -4.2519177500999996    4.2519163460999998
     4.2519158781000002    4.2519163460999998   -4.2519196222000000
   Fe
    26
Direct
 0.0114440087617763  0.0114440087617763  0.0114440087617763
-0.0050948597975503 -0.0050948597975503  0.3333333334038926
 0.0017569792361038  0.0017569792361038  0.6701806250291215
-0.0050948598014725  0.3333333334038926 -0.0050948598014725
 0.0114440087656985  0.3333333332902129  0.3333333332862978
 0.0017569792361038  0.3333333332941351  0.6649096874619166
 0.0017569792282666  0.6701806250291215  0.0017569792282666
 0.0017569792321888  0.6649096874658387  0.3333333332862978
-0.0035139584486958  0.6649096874697610  0.6649096874619166
 0.3333333334038926 -0.0050948598014725 -0.0050948598014725
 0.3333333332902129  0.0114440087656985  0.3333333332862978
 0.3333333332941351  0.0017569792361038  0.6649096874619166
 0.3333333333239262  0.3333333333239262  0.2689554684190219
 0.3333333332941351  0.3333333332941351  0.6552226578108120
 0.3333333332862978  0.6649096874619166  0.0017569792282666
 0.3333333332902129  0.6552226578147342  0.3333333332862978
 0.3333333334117299  0.6717615264995003  0.6717615264916559
 0.6701806250291215  0.0017569792282666  0.0017569792282666
 0.6649096874658387  0.0017569792321888  0.3333333332862978
 0.6649096874697610 -0.0035139584486958  0.6649096874619166
 0.6649096874619166  0.3333333332862978  0.0017569792282666
 0.6552226578147342  0.3333333332902129  0.3333333332862978
 0.6717615264995003  0.3333333334117299  0.6717615264916559
 0.6649096874619166  0.6649096874619166 -0.0035139584565331
 0.6717615264955781  0.6717615264955781  0.3333333334038926
 0.6552226578186564  0.6552226578186564  0.6552226578108120
