Fe bcc primitive cell                   
   1.00000000000000     
    -4.2443776701116978    4.2443776750910907    4.2443776750910009
     4.2443781422612208   -4.2443781372818279    4.2443767407507398
     4.2443762735805199    4.2443767407506501   -4.2443800060620847
   Fe
    27
Direct
 -0.0000000000000000 -0.0000000000000000  0.0000000000000000
  0.0000000000039222  0.0000000000039222  0.3333333334038926
  0.0000000000078373  0.0000000000078373  0.6666666665725884
 -0.0000000000000000  0.3333333334038926 -0.0000000000000000
  0.0000000000039222  0.3333333332902129  0.3333333332862978
  0.0000000000078373  0.3333333332941351  0.6666666666901833
  0.0000000000000000  0.6666666665725884 -0.0000000000000000
  0.0000000000039222  0.6666666666941055  0.3333333332862978
  0.0000000000078373  0.6666666666980277  0.6666666666901833
  0.3333333334038926 -0.0000000000000000 -0.0000000000000000
  0.3333333332902129  0.0000000000039222  0.3333333332862978
  0.3333333332941351  0.0000000000078373  0.6666666666901833
  0.3333333332862978  0.3333333332862978 -0.0000000000000000
  0.3333333334078077  0.3333333334078077  0.3333333334038926
  0.3333333332941351  0.3333333332941351  0.6666666665725884
  0.3333333332862978  0.6666666666901833  0.0000000000000000
  0.3333333332902129  0.6666666665765106  0.3333333332862978
  0.3333333334117299  0.6666666666980277  0.6666666666901833
  0.6666666665725884 -0.0000000000000000 -0.0000000000000000
  0.6666666666941055  0.0000000000039222  0.3333333332862978
  0.6666666666980277  0.0000000000078373  0.6666666666901833
  0.6666666666901833  0.3333333332862978  0.0000000000000000
  0.6666666665765106  0.3333333332902129  0.3333333332862978
  0.6666666666980277  0.3333333334117299  0.6666666666901833
  0.6666666666901833  0.6666666666901833 -0.0000000000000000
  0.6666666666941055  0.6666666666941055  0.3333333334038926
  0.6666666665804328  0.6666666665804328  0.6666666665725884
 
  0.00000000E+00  0.00000000E+00  0.00000000E+00
  0.00000000E+00  0.00000000E+00  0.00000000E+00
  0.00000000E+00  0.00000000E+00  0.00000000E+00
  0.00000000E+00  0.00000000E+00  0.00000000E+00
  0.00000000E+00  0.00000000E+00  0.00000000E+00
  0.00000000E+00  0.00000000E+00  0.00000000E+00
  0.00000000E+00  0.00000000E+00  0.00000000E+00
  0.00000000E+00  0.00000000E+00  0.00000000E+00
  0.00000000E+00  0.00000000E+00  0.00000000E+00
  0.00000000E+00  0.00000000E+00  0.00000000E+00
  0.00000000E+00  0.00000000E+00  0.00000000E+00
  0.00000000E+00  0.00000000E+00  0.00000000E+00
  0.00000000E+00  0.00000000E+00  0.00000000E+00
  0.00000000E+00  0.00000000E+00  0.00000000E+00
  0.00000000E+00  0.00000000E+00  0.00000000E+00
  0.00000000E+00  0.00000000E+00  0.00000000E+00
  0.00000000E+00  0.00000000E+00  0.00000000E+00
  0.00000000E+00  0.00000000E+00  0.00000000E+00
  0.00000000E+00  0.00000000E+00  0.00000000E+00
  0.00000000E+00  0.00000000E+00  0.00000000E+00
  0.00000000E+00  0.00000000E+00  0.00000000E+00
  0.00000000E+00  0.00000000E+00  0.00000000E+00
  0.00000000E+00  0.00000000E+00  0.00000000E+00
  0.00000000E+00  0.00000000E+00  0.00000000E+00
  0.00000000E+00  0.00000000E+00  0.00000000E+00
  0.00000000E+00  0.00000000E+00  0.00000000E+00
  0.00000000E+00  0.00000000E+00  0.00000000E+00
