Fe bcc primitive cell                                                                               
 1.000
   -4.2519172821000000    4.2519172821000000    4.2519172821000000
    4.2519177500999996   -4.2519177500999996    4.2519163460999998
    4.2519158781000002    4.2519163460999998   -4.2519196222000000
   Fe
   27
Direct
    0.0000000000000000    0.0000000000000000    0.0000000000000000     Fe1
    0.0000000000039199    0.0000000000039198    0.3333333334038897     Fe2
    0.0000000000078396    0.0000000000078396    0.6666666665725913     Fe3
    0.0000000000000000    0.3333333334038898   -0.0000000000000000     Fe4
    0.0000000000039198    0.3333333332902156    0.3333333332862957     Fe5
    0.0000000000078396    0.3333333332941353    0.6666666666901854     Fe6
    0.0000000000000000    0.6666666665725915   -0.0000000000000000     Fe7
    0.0000000000039198    0.6666666666941053    0.3333333332862958     Fe8
    0.0000000000078396    0.6666666666980251    0.6666666666901854     Fe9
    0.3333333334038897    0.0000000000000000   -0.0000000000000000    Fe10
    0.3333333332902155    0.0000000000039198    0.3333333332862957    Fe11
    0.3333333332941353    0.0000000000078396    0.6666666666901854    Fe12
    0.3333333332862957    0.3333333332862958   -0.0000000000000000    Fe13
    0.3333333334078096    0.3333333334078096    0.3333333334038897    Fe14
    0.3333333332941352    0.3333333332941353    0.6666666665725914    Fe15
    0.3333333332862957    0.6666666666901855   -0.0000000000000001    Fe16
    0.3333333332902154    0.6666666665765113    0.3333333332862957    Fe17
    0.3333333334117293    0.6666666666980250    0.6666666666901854    Fe18
    0.6666666665725913    0.0000000000000000   -0.0000000000000000    Fe19
    0.6666666666941051    0.0000000000039198    0.3333333332862957    Fe20
    0.6666666666980250    0.0000000000078396    0.6666666666901854    Fe21
    0.6666666666901853    0.3333333332862958   -0.0000000000000001    Fe22
    0.6666666665765111    0.3333333332902155    0.3333333332862957    Fe23
    0.6666666666980250    0.3333333334117293    0.6666666666901854    Fe24
    0.6666666666901853    0.6666666666901855   -0.0000000000000001    Fe25
    0.6666666666941052    0.6666666666941053    0.3333333334038897    Fe26
    0.6666666665804308    0.6666666665804311    0.6666666665725913    Fe27
