Fe bcc vacancy supercell                
   1.00000000000000     
    -4.2519172821000000    4.2519172821000000    4.2519172821000000
     4.2519177500999996   -4.2519177500999996    4.2519163460999998
     4.2519158781000002    4.2519163460999998   -4.2519196222000000
   Fe
    26
Direct
  0.0114440087617780  0.0114440087617780  0.0114440087617780
  0.9949051402024480  0.9949051402024480  0.3333333334038926
  0.0017569792361058  0.0017569792361058  0.6701806250291185
  0.9949051401985258  0.3333333334038926  0.9949051401985258
  0.0114440087657002  0.3333333332902129  0.3333333332862978
  0.0017569792361058  0.3333333332941351  0.6649096874619147
  0.0017569792282686  0.6701806250291185  0.0017569792282686
  0.0017569792321908  0.6649096874658369  0.3333333332862978
  0.9964860415513073  0.6649096874697591  0.6649096874619147
  0.3333333334038926  0.9949051401985258  0.9949051401985258
  0.3333333332902129  0.0114440087657002  0.3333333332862978
  0.3333333332941351  0.0017569792361058  0.6649096874619147
  0.3333333333051129  0.3333333333051129  0.1401997385903968
  0.3333333332941351  0.3333333332941351  0.6552226578108105
  0.3333333332862978  0.6649096874619147  0.0017569792282686
  0.3333333332902129  0.6552226578147327  0.3333333332862978
  0.3333333334117299  0.6717615264995018  0.6717615264916574
  0.6701806250291185  0.0017569792282686  0.0017569792282686
  0.6649096874658369  0.0017569792321908  0.3333333332862978
  0.6649096874697591  0.9964860415513073  0.6649096874619147
  0.6649096874619147  0.3333333332862978  0.0017569792282686
  0.6552226578147327  0.3333333332902129  0.3333333332862978
  0.6717615264995018  0.3333333334117299  0.6717615264916574
  0.6649096874619147  0.6649096874619147  0.9964860415434700
  0.6717615264955796  0.6717615264955796  0.3333333334038926
  0.6552226578186549  0.6552226578186549  0.6552226578108105
 
             NaN             NaN             NaN
             NaN             NaN             NaN
             NaN             NaN             NaN
             NaN             NaN             NaN
             NaN             NaN             NaN
             NaN             NaN             NaN
             NaN             NaN             NaN
             NaN             NaN             NaN
             NaN             NaN             NaN
             NaN             NaN             NaN
             NaN             NaN             NaN
             NaN             NaN             NaN
             NaN             NaN             NaN
             NaN             NaN             NaN
             NaN             NaN             NaN
             NaN             NaN             NaN
             NaN             NaN             NaN
             NaN             NaN             NaN
             NaN             NaN             NaN
             NaN             NaN             NaN
             NaN             NaN             NaN
             NaN             NaN             NaN
             NaN             NaN             NaN
             NaN             NaN             NaN
             NaN             NaN             NaN
             NaN             NaN             NaN
