generated by phonopy
   1.0
    -2.8346117168890101    2.8346117168890101    2.8346117168890101
     2.8346117168890101   -2.8346117168890101    2.8346117168890101
     2.8346117168890101    2.8346117168890101   -2.8346117168890101
Fe
   8
Direct
  0.0020367878455793  0.0000000000000000  0.0000000000000000
  0.5000000000000000  0.0000000000000000  0.0000000000000000
  0.0000000000000000  0.5000000000000000  0.0000000000000000
  0.5000000000000000  0.5000000000000000  0.0000000000000000
  0.0000000000000000  0.0000000000000000  0.5000000000000000
  0.5000000000000000  0.0000000000000000  0.5000000000000000
  0.0000000000000000  0.5000000000000000  0.5000000000000000
  0.4999999999999999  0.5000000000000000  0.5000000000000000
~

